p edge 77 308
e 1 20
e 1 31
e 1 37
e 1 38
e 1 52
e 1 53
e 1 58
e 1 62
e 1 65
e 1 71
e 2 15
e 2 52
e 2 54
e 2 57
e 2 61
e 2 69
e 3 10
e 3 20
e 3 45
e 3 47
e 3 56
e 3 67
e 4 8
e 4 20
e 4 43
e 4 44
e 4 45
e 4 53
e 4 67
e 5 12
e 5 18
e 5 25
e 5 35
e 5 36
e 5 45
e 5 57
e 5 65
e 5 75
e 6 23
e 6 25
e 6 33
e 6 39
e 6 43
e 6 44
e 6 52
e 6 53
e 6 58
e 6 75
e 7 30
e 7 36
e 7 39
e 7 46
e 7 57
e 8 21
e 8 29
e 8 32
e 8 38
e 8 39
e 8 50
e 8 70
e 8 72
e 9 13
e 9 26
e 9 36
e 10 12
e 10 35
e 10 44
e 10 57
e 10 60
e 11 14
e 11 19
e 11 49
e 11 72
e 11 73
e 11 77
e 12 25
e 12 26
e 12 41
e 12 55
e 12 74
e 13 15
e 13 17
e 13 23
e 13 26
e 13 27
e 13 36
e 13 42
e 13 74
e 14 53
e 14 57
e 14 66
e 14 68
e 14 77
e 15 25
e 15 27
e 15 28
e 15 52
e 15 72
e 16 19
e 16 23
e 16 25
e 16 43
e 16 55
e 16 58
e 16 59
e 16 72
e 16 74
e 17 27
e 17 29
e 17 54
e 17 60
e 17 62
e 17 75
e 17 76
e 18 22
e 18 24
e 18 25
e 18 35
e 18 38
e 18 45
e 19 25
e 19 28
e 19 38
e 19 40
e 19 43
e 19 53
e 19 57
e 19 61
e 19 62
e 19 67
e 19 75
e 19 76
e 20 32
e 20 36
e 20 37
e 20 46
e 20 50
e 20 68
e 20 72
e 21 23
e 21 24
e 21 30
e 21 31
e 21 49
e 21 59
e 21 66
e 21 68
e 22 27
e 22 53
e 22 55
e 22 62
e 22 69
e 23 32
e 23 33
e 23 37
e 23 47
e 23 51
e 23 57
e 23 63
e 23 64
e 23 72
e 24 45
e 24 52
e 24 53
e 24 60
e 24 63
e 24 68
e 25 27
e 25 29
e 25 30
e 25 55
e 25 65
e 26 31
e 26 46
e 26 51
e 26 52
e 26 71
e 26 77
e 27 39
e 27 45
e 27 53
e 27 54
e 28 39
e 28 50
e 28 58
e 28 69
e 29 38
e 29 47
e 29 49
e 29 64
e 30 33
e 30 51
e 30 54
e 30 55
e 30 56
e 30 76
e 31 38
e 31 45
e 31 61
e 32 60
e 32 64
e 33 35
e 33 37
e 33 39
e 33 44
e 33 46
e 33 61
e 33 66
e 33 67
e 34 40
e 34 48
e 34 66
e 34 73
e 34 74
e 35 37
e 35 42
e 35 51
e 35 53
e 35 55
e 35 66
e 35 69
e 35 72
e 36 53
e 36 65
e 37 51
e 37 53
e 38 40
e 38 41
e 38 47
e 38 54
e 38 59
e 38 60
e 38 72
e 39 41
e 39 55
e 39 60
e 39 69
e 39 71
e 40 50
e 40 57
e 40 72
e 40 74
e 41 54
e 42 43
e 42 46
e 42 56
e 42 71
e 42 74
e 43 46
e 43 67
e 44 60
e 45 54
e 45 59
e 46 47
e 46 68
e 46 72
e 47 49
e 47 53
e 47 63
e 47 64
e 47 76
e 48 49
e 48 52
e 48 54
e 48 58
e 48 67
e 48 72
e 49 57
e 49 66
e 49 72
e 50 52
e 50 55
e 50 65
e 50 69
e 51 57
e 51 74
e 52 53
e 52 59
e 52 61
e 52 67
e 52 76
e 53 58
e 54 55
e 54 69
e 54 70
e 55 58
e 55 67
e 56 77
e 58 67
e 58 72
e 60 64
e 60 72
e 61 77
e 62 63
e 62 75
e 62 77
e 63 72
e 64 70
e 64 76
e 64 77
e 65 72
e 67 73
e 67 77
e 68 73
e 69 70
e 70 72
e 73 77
e 75 76
